NAME : dcc1911
COMMENT : Bonn VLSI data set with 1911 points
COMMENT : Uni Bonn, Research Institute for Discrete Math
COMMENT : Contributed by Andre Rohe
TYPE : TSP
DIMENSION : 1911
EDGE_WEIGHT_TYPE : EUC_2D
NODE_COORD_SECTION
1 0 147
2 0 148
3 0 65
4 2 101
5 2 103
6 2 105
7 2 107
8 2 109
9 2 111
10 2 121
11 2 13
12 2 147
13 2 149
14 2 15
15 2 150
16 2 153
17 2 154
18 2 156
19 2 158
20 2 159
21 2 162
22 2 163
23 2 166
24 2 177
25 2 184
26 2 19
27 2 26
28 2 27
29 2 28
30 2 35
31 2 37
32 2 39
33 2 40
34 2 43
35 2 44
36 2 47
37 2 79
38 2 83
39 2 97
40 2 99
41 5 102
42 5 106
43 5 110
44 5 114
45 5 116
46 5 121
47 5 123
48 5 127
49 5 133
50 5 139
51 5 143
52 5 145
53 5 150
54 5 154
55 5 159
56 5 163
57 5 35
58 5 40
59 5 44
60 5 8
61 5 87
62 5 90
63 5 94
64 5 98
65 8 147
66 8 156
67 8 37
68 9 124
69 9 147
70 9 150
71 9 154
72 9 156
73 9 159
74 9 163
75 9 25
76 9 37
77 9 40
78 9 44
79 9 96
80 10 120
81 10 124
82 10 148
83 10 152
84 10 157
85 10 161
86 10 165
87 10 18
88 10 34
89 10 38
90 10 42
91 10 46
92 10 96
93 11 113
94 11 120
95 11 124
96 11 137
97 11 144
98 11 147
99 11 156
100 11 165
101 11 18
102 11 29
103 11 34
104 11 37
105 11 77
106 11 85
107 11 88
108 11 9
109 11 96
110 12 124
111 12 140
112 12 5
113 15 114
114 15 116
115 15 121
116 15 123
117 15 127
118 15 133
119 15 143
120 15 145
121 15 149
122 15 153
123 15 158
124 15 162
125 15 35
126 15 39
127 15 43
128 15 47
129 15 8
130 16 19
131 17 177
132 17 79
133 17 83
134 18 125
135 18 127
136 18 129
137 18 131
138 18 133
139 18 135
140 18 184
141 25 101
142 25 109
143 25 111
144 25 125
145 25 145
146 25 146
147 25 147
148 25 154
149 25 158
150 25 159
151 25 160
152 25 167
153 25 168
154 25 169
155 25 173
156 25 175
157 25 183
158 25 19
159 25 21
160 25 23
161 25 25
162 25 28
163 25 30
164 25 31
165 25 32
166 25 33
167 25 34
168 25 36
169 25 41
170 25 43
171 25 45
172 25 47
173 25 49
174 25 50
175 25 53
176 25 54
177 25 57
178 25 58
179 25 59
180 25 60
181 25 61
182 25 63
183 25 68
184 25 69
185 25 70
186 25 85
187 25 97
188 25 99
189 28 10
190 28 101
191 28 106
192 28 109
193 28 111
194 28 113
195 28 116
196 28 119
197 28 123
198 28 125
199 28 13
200 28 131
201 28 139
202 28 15
203 28 154
204 28 156
205 28 173
206 28 175
207 28 177
208 28 20
209 28 24
210 28 28
211 28 41
212 28 43
213 28 45
214 28 50
215 28 54
216 28 78
217 28 8
218 28 82
219 28 97
220 28 99
221 31 127
222 31 133
223 31 141
224 31 47
225 32 127
226 32 133
227 32 141
228 32 144
229 32 157
230 32 18
231 32 47
232 32 50
233 32 54
234 32 67
235 33 108
236 33 124
237 33 127
238 33 133
239 33 141
240 33 153
241 33 172
242 33 18
243 33 40
244 33 48
245 33 52
246 33 84
247 33 96
248 34 108
249 34 114
250 34 117
251 34 12
252 34 124
253 34 127
254 34 134
255 34 142
256 34 148
257 34 153
258 34 161
259 34 168
260 34 172
261 34 18
262 34 36
263 34 40
264 34 47
265 34 63
266 34 71
267 34 76
268 34 84
269 34 9
270 34 96
271 35 103
272 35 127
273 35 5
274 38 10
275 38 101
276 38 106
277 38 109
278 38 111
279 38 113
280 38 125
281 38 13
282 38 15
283 38 154
284 38 156
285 38 173
286 38 175
287 38 177
288 38 41
289 38 43
290 38 45
291 38 49
292 38 53
293 38 8
294 38 97
295 38 99
296 41 128
297 41 129
298 41 131
299 41 132
300 41 136
301 41 137
302 41 139
303 41 141
304 41 169
305 41 183
306 41 30
307 41 31
308 41 33
309 41 34
310 41 57
311 41 58
312 41 60
313 41 61
314 48 103
315 48 105
316 48 109
317 48 111
318 48 113
319 48 115
320 48 118
321 48 121
322 48 123
323 48 125
324 48 127
325 48 133
326 48 135
327 48 139
328 48 148
329 48 157
330 48 158
331 48 159
332 48 165
333 48 166
334 48 167
335 48 169
336 48 170
337 48 171
338 48 174
339 48 20
340 48 29
341 48 49
342 48 51
343 48 54
344 48 6
345 48 71
346 48 72
347 48 73
348 48 95
349 48 96
350 48 97
351 51 101
352 51 103
353 51 105
354 51 107
355 51 110
356 51 114
357 51 121
358 51 123
359 51 125
360 51 128
361 51 130
362 51 134
363 51 139
364 51 141
365 51 145
366 51 178
367 51 181
368 51 185
369 51 42
370 51 44
371 51 50
372 51 54
373 51 56
374 51 83
375 51 91
376 55 108
377 55 132
378 55 156
379 55 48
380 55 70
381 56 102
382 56 108
383 56 120
384 56 127
385 56 132
386 56 138
387 56 147
388 56 19
389 56 26
390 56 48
391 57 102
392 57 108
393 57 12
394 57 120
395 57 127
396 57 129
397 57 132
398 57 138
399 57 147
400 57 160
401 57 176
402 57 179
403 57 19
404 57 26
405 57 41
406 57 48
407 57 55
408 57 59
409 57 74
410 57 99
411 58 142
412 58 79
413 61 103
414 61 105
415 61 107
416 61 121
417 61 123
418 61 125
419 61 128
420 61 130
421 61 139
422 61 141
423 61 145
424 61 42
425 61 44
426 61 56
427 62 20
428 63 118
429 63 166
430 63 167
431 63 170
432 63 171
433 63 174
434 63 6
435 63 95
436 64 96
437 71 102
438 71 105
439 71 108
440 71 110
441 71 111
442 71 114
443 71 115
444 71 118
445 71 123
446 71 125
447 71 126
448 71 129
449 71 130
450 71 132
451 71 134
452 71 135
453 71 136
454 71 141
455 71 143
456 71 144
457 71 145
458 71 148
459 71 152
460 71 154
461 71 156
462 71 164
463 71 173
464 71 18
465 71 20
466 71 97
467 71 99
468 74 102
469 74 105
470 74 107
471 74 111
472 74 115
473 74 12
474 74 122
475 74 126
476 74 130
477 74 133
478 74 137
479 74 141
480 74 148
481 74 150
482 74 152
483 74 154
484 74 156
485 74 161
486 74 167
487 74 178
488 74 181
489 74 185
490 74 23
491 74 26
492 74 28
493 74 33
494 74 38
495 74 52
496 74 58
497 74 62
498 74 66
499 74 68
500 74 73
501 74 78
502 74 8
503 74 83
504 74 87
505 74 93
506 74 98
507 77 108
508 77 123
509 77 134
510 77 30
511 77 70
512 78 108
513 78 111
514 78 115
515 78 12
516 78 123
517 78 126
518 78 130
519 78 134
520 78 158
521 78 5
522 78 55
523 78 58
524 78 62
525 78 8
526 78 96
527 79 10
528 79 104
529 79 109
530 79 113
531 79 117
532 79 124
533 79 128
534 79 132
535 79 134
536 79 140
537 79 147
538 79 151
539 79 158
540 79 56
541 79 6
542 79 60
543 79 96
544 80 104
545 80 108
546 80 123
547 80 132
548 80 134
549 80 14
550 80 140
551 80 147
552 80 151
553 80 158
554 80 176
555 80 179
556 80 22
557 80 25
558 80 45
559 80 50
560 80 65
561 80 81
562 80 96
563 81 119
564 81 158
565 81 84
566 84 105
567 84 107
568 84 11
569 84 110
570 84 114
571 84 118
572 84 122
573 84 125
574 84 129
575 84 133
576 84 137
577 84 141
578 84 148
579 84 150
580 84 152
581 84 154
582 84 156
583 84 161
584 84 167
585 84 23
586 84 26
587 84 28
588 84 33
589 84 38
590 84 57
591 84 61
592 84 66
593 84 68
594 84 7
595 84 73
596 84 78
597 84 87
598 84 93
599 86 144
600 87 145
601 87 159
602 87 161
603 87 162
604 87 163
605 87 165
606 87 166
607 87 173
608 94 115
609 94 121
610 94 122
611 94 123
612 94 126
613 94 128
614 94 129
615 94 130
616 94 132
617 94 134
618 94 136
619 94 137
620 94 138
621 94 145
622 94 147
623 94 149
624 94 151
625 94 153
626 94 155
627 94 156
628 94 159
629 94 160
630 94 163
631 94 164
632 94 167
633 94 184
634 94 186
635 94 36
636 94 37
637 94 41
638 94 42
639 94 46
640 94 47
641 94 52
642 94 61
643 94 62
644 94 66
645 94 67
646 94 71
647 94 72
648 94 77
649 94 9
650 95 39
651 95 64
652 97 105
653 97 111
654 97 118
655 97 126
656 97 134
657 97 146
658 97 150
659 97 156
660 97 160
661 97 164
662 97 170
663 97 174
664 97 178
665 97 24
666 97 28
667 97 31
668 97 33
669 97 6
670 97 99
671 100 153
672 101 115
673 101 132
674 101 135
675 101 144
676 101 153
677 101 156
678 101 160
679 101 164
680 101 171
681 101 174
682 101 178
683 101 21
684 101 24
685 101 28
686 101 96
687 102 115
688 102 125
689 102 132
690 102 144
691 102 154
692 102 158
693 102 162
694 102 166
695 102 172
696 102 176
697 102 22
698 102 26
699 102 54
700 102 79
701 102 96
702 103 115
703 103 125
704 103 132
705 103 139
706 103 144
707 103 15
708 103 153
709 103 168
710 103 180
711 103 30
712 103 5
713 103 85
714 103 96
715 104 115
716 104 96
717 107 105
718 107 111
719 107 118
720 107 126
721 107 155
722 107 159
723 107 163
724 107 167
725 107 173
726 107 177
727 107 23
728 107 27
729 107 31
730 107 33
731 107 6
732 107 99
733 109 121
734 109 122
735 109 123
736 109 129
737 109 130
738 109 36
739 109 42
740 109 52
741 109 61
742 109 67
743 109 77
744 109 9
745 110 101
746 110 103
747 110 105
748 110 107
749 110 109
750 110 110
751 110 112
752 110 113
753 110 116
754 110 117
755 110 40
756 110 46
757 110 65
758 110 71
759 110 97
760 110 99
761 117 100
762 117 101
763 117 103
764 117 109
765 117 111
766 117 123
767 117 127
768 117 128
769 117 131
770 117 132
771 117 133
772 117 140
773 117 152
774 117 154
775 117 156
776 117 158
777 117 16
778 117 160
779 117 162
780 117 168
781 117 184
782 117 39
783 117 40
784 117 44
785 117 45
786 117 49
787 117 50
788 117 55
789 117 66
790 117 82
791 117 9
792 117 92
793 117 94
794 117 97
795 117 98
796 117 99
797 118 42
798 120 110
799 120 115
800 120 119
801 120 140
802 120 142
803 120 146
804 120 150
805 120 154
806 120 157
807 120 161
808 120 165
809 120 23
810 120 27
811 120 30
812 120 32
813 120 35
814 120 37
815 120 6
816 120 64
817 120 66
818 120 69
819 120 82
820 120 87
821 123 120
822 124 108
823 124 130
824 124 143
825 124 146
826 124 150
827 124 152
828 124 155
829 124 20
830 124 23
831 124 27
832 125 108
833 125 139
834 125 144
835 125 148
836 125 152
837 125 155
838 125 21
839 125 25
840 125 57
841 125 65
842 125 81
843 126 103
844 126 108
845 126 113
846 126 134
847 126 139
848 126 152
849 126 155
850 126 164
851 126 174
852 126 29
853 126 34
854 126 36
855 126 5
856 126 63
857 126 65
858 126 68
859 126 70
860 126 81
861 126 88
862 127 116
863 127 84
864 130 119
865 130 140
866 130 142
867 130 145
868 130 149
869 130 165
870 130 22
871 130 26
872 130 30
873 130 32
874 130 35
875 130 37
876 130 6
877 130 64
878 130 66
879 130 69
880 130 82
881 130 87
882 132 128
883 132 168
884 132 39
885 132 45
886 132 55
887 132 9
888 133 100
889 133 101
890 133 16
891 133 184
892 133 43
893 133 49
894 133 97
895 133 98
896 138 192
897 140 115
898 140 117
899 140 124
900 140 128
901 140 151
902 140 152
903 140 153
904 140 156
905 140 158
906 140 16
907 140 160
908 140 162
909 140 18
910 140 184
911 140 186
912 140 22
913 140 33
914 140 35
915 140 37
916 140 39
917 140 41
918 140 49
919 140 51
920 140 53
921 140 55
922 140 84
923 140 89
924 140 94
925 141 192
926 142 192
927 143 105
928 143 11
929 143 110
930 143 116
931 143 142
932 143 150
933 143 157
934 143 161
935 143 166
936 143 170
937 143 174
938 143 178
939 143 192
940 143 33
941 143 35
942 143 37
943 143 39
944 143 41
945 143 45
946 143 49
947 143 51
948 143 53
949 143 55
950 143 60
951 143 66
952 143 7
953 143 77
954 143 79
955 143 89
956 143 99
957 146 102
958 146 81
959 147 114
960 147 155
961 147 171
962 147 174
963 147 178
964 148 114
965 148 127
966 148 155
967 148 172
968 148 176
969 148 21
970 148 32
971 148 48
972 148 88
973 149 114
974 149 12
975 149 123
976 149 127
977 149 155
978 149 164
979 149 180
980 149 21
981 149 32
982 149 43
983 149 48
984 149 5
985 149 71
986 149 76
987 149 88
988 149 93
989 149 97
990 150 138
991 150 167
992 150 57
993 150 8
994 153 105
995 153 11
996 153 110
997 153 170
998 153 173
999 153 177
1000 153 33
1001 153 35
1002 153 37
1003 153 39
1004 153 41
1005 153 49
1006 153 51
1007 153 53
1008 153 55
1009 153 60
1010 153 66
1011 153 77
1012 153 79
1013 153 89
1014 155 152
1015 155 153
1016 156 124
1017 156 94
1018 163 10
1019 163 100
1020 163 114
1021 163 116
1022 163 119
1023 163 121
1024 163 123
1025 163 125
1026 163 126
1027 163 129
1028 163 130
1029 163 133
1030 163 135
1031 163 137
1032 163 139
1033 163 142
1034 163 147
1035 163 148
1036 163 149
1037 163 153
1038 163 155
1039 163 158
1040 163 160
1041 163 162
1042 163 164
1043 163 166
1044 163 168
1045 163 170
1046 163 172
1047 163 174
1048 163 176
1049 163 178
1050 163 181
1051 163 35
1052 163 36
1053 163 40
1054 163 41
1055 163 45
1056 163 46
1057 163 51
1058 163 90
1059 163 94
1060 163 97
1061 164 38
1062 166 100
1063 166 102
1064 166 106
1065 166 108
1066 166 112
1067 166 115
1068 166 119
1069 166 121
1070 166 126
1071 166 130
1072 166 134
1073 166 138
1074 166 142
1075 166 154
1076 166 158
1077 166 161
1078 166 165
1079 166 169
1080 166 173
1081 166 177
1082 166 181
1083 166 185
1084 166 27
1085 166 33
1086 166 94
1087 166 97
1088 169 123
1089 170 113
1090 170 123
1091 170 126
1092 170 130
1093 170 132
1094 170 152
1095 170 159
1096 171 113
1097 171 120
1098 171 124
1099 171 128
1100 171 132
1101 171 141
1102 171 152
1103 171 159
1104 171 53
1105 171 93
1106 171 96
1107 171 99
1108 172 105
1109 172 110
1110 172 113
1111 172 120
1112 172 123
1113 172 13
1114 172 132
1115 172 141
1116 172 148
1117 172 152
1118 172 159
1119 172 88
1120 172 93
1121 172 96
1122 172 99
1123 173 182
1124 173 24
1125 176 100
1126 176 102
1127 176 106
1128 176 108
1129 176 121
1130 176 125
1131 176 129
1132 176 142
1133 176 185
1134 176 27
1135 176 33
1136 176 94
1137 176 97
1138 178 35
1139 178 41
1140 178 51
1141 178 90
1142 179 10
1143 179 149
1144 179 39
1145 179 45
1146 180 0
1147 180 192
1148 186 10
1149 186 104
1150 186 106
1151 186 108
1152 186 111
1153 186 113
1154 186 115
1155 186 119
1156 186 124
1157 186 126
1158 186 128
1159 186 130
1160 186 133
1161 186 153
1162 186 154
1163 186 155
1164 186 156
1165 186 158
1166 186 169
1167 186 171
1168 186 173
1169 186 175
1170 186 178
1171 186 185
1172 186 35
1173 186 36
1174 186 46
1175 186 47
1176 186 49
1177 186 61
1178 186 62
1179 186 63
1180 186 64
1181 186 88
1182 186 89
1183 186 93
1184 186 94
1185 186 97
1186 186 98
1187 186 99
1188 187 50
1189 187 91
1190 189 109
1191 189 11
1192 189 111
1193 189 113
1194 189 115
1195 189 117
1196 189 125
1197 189 129
1198 189 13
1199 189 133
1200 189 135
1201 189 137
1202 189 140
1203 189 145
1204 189 150
1205 189 163
1206 189 167
1207 189 169
1208 189 171
1209 189 173
1210 189 175
1211 189 7
1212 192 142
1213 193 123
1214 193 80
1215 194 10
1216 194 108
1217 194 110
1218 194 123
1219 194 168
1220 195 10
1221 195 108
1222 195 110
1223 195 12
1224 195 123
1225 195 134
1226 195 139
1227 195 14
1228 195 161
1229 195 168
1230 195 5
1231 195 80
1232 196 164
1233 199 109
1234 199 11
1235 199 111
1236 199 113
1237 199 115
1238 199 117
1239 199 13
1240 199 135
1241 199 137
1242 199 140
1243 199 145
1244 199 150
1245 199 167
1246 199 169
1247 199 171
1248 199 173
1249 199 175
1250 201 104
1251 201 106
1252 201 119
1253 201 178
1254 201 35
1255 201 61
1256 201 63
1257 201 88
1258 201 94
1259 201 97
1260 202 154
1261 202 155
1262 202 156
1263 202 158
1264 202 185
1265 202 34
1266 202 45
1267 202 51
1268 202 64
1269 202 92
1270 202 98
1271 207 0
1272 207 192
1273 209 106
1274 209 112
1275 209 115
1276 209 131
1277 209 133
1278 209 134
1279 209 137
1280 209 138
1281 209 141
1282 209 142
1283 209 145
1284 209 147
1285 209 149
1286 209 151
1287 209 153
1288 209 155
1289 209 157
1290 209 158
1291 209 161
1292 209 162
1293 209 165
1294 209 166
1295 209 169
1296 209 17
1297 209 18
1298 209 183
1299 209 185
1300 209 20
1301 209 21
1302 209 22
1303 209 25
1304 209 26
1305 209 30
1306 209 31
1307 209 34
1308 209 35
1309 209 36
1310 209 41
1311 209 48
1312 209 49
1313 209 53
1314 209 54
1315 209 57
1316 209 58
1317 209 59
1318 209 64
1319 209 71
1320 209 72
1321 209 76
1322 209 77
1323 209 80
1324 209 81
1325 209 82
1326 209 87
1327 209 97
1328 209 99
1329 210 28
1330 210 51
1331 210 74
1332 212 10
1333 212 104
1334 212 106
1335 212 108
1336 212 112
1337 212 115
1338 212 117
1339 212 121
1340 212 127
1341 212 13
1342 212 134
1343 212 138
1344 212 142
1345 212 148
1346 212 15
1347 212 152
1348 212 158
1349 212 162
1350 212 166
1351 212 173
1352 212 177
1353 212 8
1354 212 94
1355 212 98
1356 215 131
1357 215 155
1358 216 118
1359 216 131
1360 216 134
1361 216 138
1362 216 142
1363 216 146
1364 216 155
1365 216 158
1366 216 162
1367 216 166
1368 216 170
1369 216 173
1370 216 177
1371 216 96
1372 217 105
1373 217 111
1374 217 114
1375 217 118
1376 217 132
1377 217 136
1378 217 140
1379 217 144
1380 217 146
1381 217 156
1382 217 160
1383 217 164
1384 217 168
1385 217 171
1386 217 175
1387 217 96
1388 218 105
1389 218 111
1390 218 114
1391 218 118
1392 218 12
1393 218 131
1394 218 146
1395 218 155
1396 218 179
1397 218 43
1398 218 66
1399 218 89
1400 218 9
1401 218 93
1402 218 96
1403 219 101
1404 219 118
1405 219 5
1406 222 10
1407 222 104
1408 222 106
1409 222 108
1410 222 112
1411 222 115
1412 222 117
1413 222 121
1414 222 127
1415 222 13
1416 222 133
1417 222 137
1418 222 141
1419 222 145
1420 222 15
1421 222 157
1422 222 161
1423 222 165
1424 222 169
1425 222 172
1426 222 176
1427 222 8
1428 222 94
1429 224 18
1430 224 21
1431 224 22
1432 224 25
1433 224 31
1434 224 34
1435 224 41
1436 224 48
1437 224 54
1438 224 57
1439 224 64
1440 224 71
1441 224 77
1442 224 80
1443 224 87
1444 225 119
1445 225 121
1446 225 123
1447 225 125
1448 225 127
1449 225 129
1450 225 29
1451 225 35
1452 225 52
1453 225 58
1454 225 75
1455 225 81
1456 232 104
1457 232 106
1458 232 109
1459 232 111
1460 232 113
1461 232 151
1462 232 153
1463 232 156
1464 232 159
1465 232 162
1466 232 164
1467 232 167
1468 232 169
1469 232 17
1470 232 171
1471 232 173
1472 232 175
1473 232 26
1474 232 30
1475 232 32
1476 232 34
1477 232 36
1478 232 39
1479 232 40
1480 232 44
1481 232 45
1482 232 48
1483 232 49
1484 232 50
1485 232 55
1486 232 63
1487 232 64
1488 232 66
1489 232 68
1490 232 70
1491 232 71
1492 232 73
1493 232 75
1494 233 42
1495 235 101
1496 235 105
1497 235 109
1498 235 111
1499 235 113
1500 235 115
1501 235 119
1502 235 127
1503 235 13
1504 235 135
1505 235 142
1506 235 146
1507 235 157
1508 235 163
1509 235 167
1510 235 169
1511 235 17
1512 235 171
1513 235 173
1514 235 176
1515 235 179
1516 235 181
1517 235 184
1518 235 186
1519 235 19
1520 235 23
1521 235 26
1522 235 28
1523 235 31
1524 235 35
1525 235 67
1526 235 70
1527 235 79
1528 235 8
1529 235 83
1530 235 89
1531 235 92
1532 235 96
1533 235 99
1534 238 123
1535 238 129
1536 238 137
1537 238 5
1538 238 71
1539 239 103
1540 239 116
1541 239 123
1542 239 129
1543 239 137
1544 239 161
1545 239 29
1546 239 68
1547 239 71
1548 240 103
1549 240 108
1550 240 116
1551 240 123
1552 240 129
1553 240 137
1554 240 156
1555 240 16
1556 240 161
1557 240 168
1558 240 175
1559 240 25
1560 240 29
1561 240 57
1562 240 66
1563 240 68
1564 240 72
1565 241 103
1566 241 108
1567 241 116
1568 241 123
1569 241 130
1570 241 138
1571 241 140
1572 241 147
1573 241 156
1574 241 16
1575 241 161
1576 241 168
1577 241 175
1578 241 177
1579 241 180
1580 241 183
1581 241 25
1582 241 29
1583 241 66
1584 241 68
1585 241 71
1586 241 77
1587 241 90
1588 241 95
1589 241 98
1590 242 116
1591 242 123
1592 242 143
1593 242 20
1594 242 80
1595 245 101
1596 245 109
1597 245 111
1598 245 113
1599 245 115
1600 245 119
1601 245 13
1602 245 146
1603 245 157
1604 245 169
1605 245 17
1606 245 171
1607 245 173
1608 245 176
1609 245 181
1610 245 184
1611 245 186
1612 245 19
1613 245 23
1614 245 26
1615 245 28
1616 245 67
1617 245 73
1618 245 8
1619 245 83
1620 245 89
1621 245 96
1622 245 99
1623 247 159
1624 247 39
1625 247 45
1626 247 48
1627 247 55
1628 247 64
1629 247 75
1630 248 117
1631 248 118
1632 248 120
1633 248 121
1634 248 124
1635 248 125
1636 248 127
1637 248 128
1638 248 132
1639 248 133
1640 248 135
1641 248 137
1642 248 43
1643 248 49
1644 251 0
1645 251 192
1646 255 107
1647 255 109
1648 255 111
1649 255 113
1650 255 115
1651 255 117
1652 255 118
1653 255 121
1654 255 123
1655 255 126
1656 255 13
1657 255 130
1658 255 132
1659 255 135
1660 255 137
1661 255 139
1662 255 142
1663 255 144
1664 255 146
1665 255 149
1666 255 161
1667 255 163
1668 255 171
1669 255 173
1670 255 175
1671 255 179
1672 255 180
1673 255 181
1674 255 184
1675 255 192
1676 255 22
1677 255 24
1678 255 26
1679 255 28
1680 255 44
1681 255 46
1682 255 52
1683 255 66
1684 255 68
1685 255 70
1686 255 73
1687 255 75
1688 255 77
1689 255 9
1690 255 92
1691 255 94
1692 255 97
1693 255 99
1694 258 104
1695 258 109
1696 258 112
1697 258 118
1698 258 123
1699 258 126
1700 258 128
1701 258 13
1702 258 131
1703 258 135
1704 258 138
1705 258 143
1706 258 147
1707 258 152
1708 258 155
1709 258 159
1710 258 162
1711 258 164
1712 258 167
1713 258 172
1714 258 178
1715 258 18
1716 258 23
1717 258 27
1718 258 34
1719 258 42
1720 258 45
1721 258 49
1722 258 56
1723 258 59
1724 258 6
1725 258 63
1726 258 66
1727 258 68
1728 258 70
1729 258 73
1730 258 75
1731 258 77
1732 258 82
1733 258 86
1734 258 97
1735 258 99
1736 261 115
1737 261 148
1738 261 30
1739 261 36
1740 262 107
1741 262 110
1742 262 115
1743 262 118
1744 262 129
1745 262 136
1746 262 141
1747 262 148
1748 262 170
1749 262 175
1750 262 21
1751 262 30
1752 262 36
1753 262 43
1754 262 79
1755 262 82
1756 262 86
1757 263 107
1758 263 110
1759 263 116
1760 263 12
1761 263 120
1762 263 122
1763 263 125
1764 263 129
1765 263 136
1766 263 141
1767 263 146
1768 263 148
1769 263 161
1770 263 163
1771 263 170
1772 263 175
1773 263 21
1774 263 30
1775 263 36
1776 263 43
1777 263 65
1778 263 72
1779 263 80
1780 263 84
1781 263 96
1782 264 107
1783 264 110
1784 264 115
1785 264 12
1786 264 122
1787 264 125
1788 264 129
1789 264 136
1790 264 141
1791 264 146
1792 264 148
1793 264 153
1794 264 161
1795 264 163
1796 264 165
1797 264 170
1798 264 175
1799 264 21
1800 264 30
1801 264 37
1802 264 43
1803 264 48
1804 264 5
1805 264 54
1806 264 57
1807 264 65
1808 264 72
1809 264 88
1810 264 96
1811 265 0
1812 265 101
1813 265 148
1814 265 15
1815 265 175
1816 265 192
1817 265 30
1818 268 104
1819 268 117
1820 268 121
1821 268 123
1822 268 126
1823 268 128
1824 268 13
1825 268 147
1826 268 162
1827 268 164
1828 268 178
1829 268 18
1830 268 49
1831 268 6
1832 268 66
1833 268 68
1834 268 70
1835 268 73
1836 268 75
1837 268 77
1838 268 81
1839 268 85
1840 268 97
1841 268 99
1842 270 180
1843 270 181
1844 270 184
1845 270 52
1846 270 9
1847 271 150
1848 271 151
1849 271 176
1850 271 177
1851 271 31
1852 271 32
1853 271 34
1854 271 36
1855 271 40
1856 271 41
1857 277 0
1858 279 192
1859 288 100
1860 288 103
1861 288 104
1862 288 107
1863 288 108
1864 288 11
1865 288 111
1866 288 112
1867 288 115
1868 288 119
1869 288 123
1870 288 127
1871 288 131
1872 288 135
1873 288 139
1874 288 141
1875 288 143
1876 288 147
1877 288 15
1878 288 151
1879 288 155
1880 288 159
1881 288 163
1882 288 167
1883 288 171
1884 288 175
1885 288 179
1886 288 183
1887 288 187
1888 288 19
1889 288 23
1890 288 27
1891 288 3
1892 288 31
1893 288 35
1894 288 39
1895 288 43
1896 288 47
1897 288 51
1898 288 55
1899 288 59
1900 288 63
1901 288 67
1902 288 7
1903 288 71
1904 288 75
1905 288 79
1906 288 83
1907 288 87
1908 288 91
1909 288 95
1910 288 96
1911 288 99
EOF
